param set_len = 22;
param target := 693352;
set values := 121073, 91221, 70120, 58155, 38425, 110669, 96741, 110438, 63852, 102867, 50559, 38530, 51787, 57784, 4341, 68757, 62336, 9867, 21144, 96009, 7163, 102871, ;
